0 81 
1 82 
2 85 
3 86 
4 86 
5 86 
6 88 
7 87 
8 88 
9 87 
10 88 
11 83 
12 85 
13 80 
14 81 
15 78 
16 78 
17 75 
18 76 
19 72 
20 73 
21 75 
22 70 
23 69 
24 70 
25 66 
26 65 
27 63 
28 57 
29 58 
30 57 
31 58 
32 57 
33 55 
34 55 
35 55 
36 55 
37 54 
38 53 
39 48 
40 46 
41 44 
42 46 
43 41 
44 40 
45 40 
46 38 
47 37 
48 34 
49 36 
50 34 
51 31 
52 29 
53 29 
54 25 
55 20 
56 17 
57 17 
58 14 
59 13 
60 9 
61 9 
62 8 
63 7 
64 7 
65 9 
66 7 
67 9 
68 8 
69 6 
70 7 
71 7 
72 3 
73 5 
74 6 
75 3 
76 3 
77 3 
78 3 
79 1 
80 0 
81 0 

